p cnf 7230 16
-3220 -3221 0
-1872 -2578 -3216 0
1872 -3217 0
3218 3219 0
2568 -3219 0
-2568 -3218 0
3216 3217 0
3214 3215 0
2560 -3215 0
-2560 -3214 0
3212 3213 0
2558 -3213 0
-2558 -3212 0
2578 -3217 0
-2570 3221 0
2570 -3221 0
